p cnf 120 640
1 2 3 0
4 5 6 0
7 8 9 0
10 11 12 0
13 14 15 0
16 17 18 0
19 20 21 0
22 23 24 0
25 26 27 0
28 29 30 0
31 32 33 0
34 35 36 0
37 38 39 0
40 41 42 0
43 44 45 0
46 47 48 0
49 50 51 0
52 53 54 0
55 56 57 0
58 59 60 0
61 62 63 0
64 65 66 0
67 68 69 0
70 71 72 0
73 74 75 0
76 77 78 0
79 80 81 0
82 83 84 0
85 86 87 0
88 89 90 0
91 92 93 0
94 95 96 0
97 98 99 0
100 101 102 0
103 104 105 0
106 107 108 0
109 110 111 0
112 113 114 0
115 116 117 0
118 119 120 0
-1 -2 0
-1 -3 0
-2 -3 0
-4 -5 0
-4 -6 0
-5 -6 0
-7 -8 0
-7 -9 0
-8 -9 0
-10 -11 0
-10 -12 0
-11 -12 0
-13 -14 0
-13 -15 0
-14 -15 0
-16 -17 0
-16 -18 0
-17 -18 0
-19 -20 0
-19 -21 0
-20 -21 0
-22 -23 0
-22 -24 0
-23 -24 0
-25 -26 0
-25 -27 0
-26 -27 0
-28 -29 0
-28 -30 0
-29 -30 0
-31 -32 0
-31 -33 0
-32 -33 0
-34 -35 0
-34 -36 0
-35 -36 0
-37 -38 0
-37 -39 0
-38 -39 0
-40 -41 0
-40 -42 0
-41 -42 0
-43 -44 0
-43 -45 0
-44 -45 0
-46 -47 0
-46 -48 0
-47 -48 0
-49 -50 0
-49 -51 0
-50 -51 0
-52 -53 0
-52 -54 0
-53 -54 0
-55 -56 0
-55 -57 0
-56 -57 0
-58 -59 0
-58 -60 0
-59 -60 0
-61 -62 0
-61 -63 0
-62 -63 0
-64 -65 0
-64 -66 0
-65 -66 0
-67 -68 0
-67 -69 0
-68 -69 0
-70 -71 0
-70 -72 0
-71 -72 0
-73 -74 0
-73 -75 0
-74 -75 0
-76 -77 0
-76 -78 0
-77 -78 0
-79 -80 0
-79 -81 0
-80 -81 0
-82 -83 0
-82 -84 0
-83 -84 0
-85 -86 0
-85 -87 0
-86 -87 0
-88 -89 0
-88 -90 0
-89 -90 0
-91 -92 0
-91 -93 0
-92 -93 0
-94 -95 0
-94 -96 0
-95 -96 0
-97 -98 0
-97 -99 0
-98 -99 0
-100 -101 0
-100 -102 0
-101 -102 0
-103 -104 0
-103 -105 0
-104 -105 0
-106 -107 0
-106 -108 0
-107 -108 0
-109 -110 0
-109 -111 0
-110 -111 0
-112 -113 0
-112 -114 0
-113 -114 0
-115 -116 0
-115 -117 0
-116 -117 0
-118 -119 0
-118 -120 0
-119 -120 0
-1 -13 0
-2 -14 0
-3 -15 0
-1 -10 0
-2 -11 0
-3 -12 0
-1 -7 0
-2 -8 0
-3 -9 0
-1 -4 0
-2 -5 0
-3 -6 0
-4 -16 0
-5 -17 0
-6 -18 0
-4 -22 0
-5 -23 0
-6 -24 0
-4 -1 0
-5 -2 0
-6 -3 0
-4 -19 0
-5 -20 0
-6 -21 0
-7 -118 0
-8 -119 0
-9 -120 0
-7 -109 0
-8 -110 0
-9 -111 0
-7 -91 0
-8 -92 0
-9 -93 0
-7 -1 0
-8 -2 0
-9 -3 0
-10 -49 0
-11 -50 0
-12 -51 0
-10 -91 0
-11 -92 0
-12 -93 0
-10 -1 0
-11 -2 0
-12 -3 0
-10 -97 0
-11 -98 0
-12 -99 0
-13 -85 0
-14 -86 0
-15 -87 0
-13 -1 0
-14 -2 0
-15 -3 0
-13 -34 0
-14 -35 0
-15 -36 0
-13 -61 0
-14 -62 0
-15 -63 0
-16 -37 0
-17 -38 0
-18 -39 0
-16 -100 0
-17 -101 0
-18 -102 0
-16 -76 0
-17 -77 0
-18 -78 0
-16 -4 0
-17 -5 0
-18 -6 0
-19 -118 0
-20 -119 0
-21 -120 0
-19 -73 0
-20 -74 0
-21 -75 0
-19 -31 0
-20 -32 0
-21 -33 0
-19 -4 0
-20 -5 0
-21 -6 0
-22 -46 0
-23 -47 0
-24 -48 0
-22 -88 0
-23 -89 0
-24 -90 0
-22 -79 0
-23 -80 0
-24 -81 0
-22 -4 0
-23 -5 0
-24 -6 0
-25 -28 0
-26 -29 0
-27 -30 0
-25 -37 0
-26 -38 0
-27 -39 0
-25 -34 0
-26 -35 0
-27 -36 0
-25 -31 0
-26 -32 0
-27 -33 0
-28 -46 0
-29 -47 0
-30 -48 0
-28 -43 0
-29 -44 0
-30 -45 0
-28 -40 0
-29 -41 0
-30 -42 0
-28 -25 0
-29 -26 0
-30 -27 0
-31 -109 0
-32 -110 0
-33 -111 0
-31 -115 0
-32 -116 0
-33 -117 0
-31 -19 0
-32 -20 0
-33 -21 0
-31 -25 0
-32 -26 0
-33 -27 0
-34 -49 0
-35 -50 0
-36 -51 0
-34 -13 0
-35 -14 0
-36 -15 0
-34 -40 0
-35 -41 0
-36 -42 0
-34 -25 0
-35 -26 0
-36 -27 0
-37 -118 0
-38 -119 0
-39 -120 0
-37 -16 0
-38 -17 0
-39 -18 0
-37 -40 0
-38 -41 0
-39 -42 0
-37 -25 0
-38 -26 0
-39 -27 0
-40 -28 0
-41 -29 0
-42 -30 0
-40 -37 0
-41 -38 0
-42 -39 0
-40 -73 0
-41 -74 0
-42 -75 0
-40 -34 0
-41 -35 0
-42 -36 0
-43 -28 0
-44 -29 0
-45 -30 0
-43 -115 0
-44 -116 0
-45 -117 0
-43 -52 0
-44 -53 0
-45 -54 0
-43 -79 0
-44 -80 0
-45 -81 0
-46 -28 0
-47 -29 0
-48 -30 0
-46 -22 0
-47 -23 0
-48 -24 0
-46 -67 0
-47 -68 0
-48 -69 0
-46 -61 0
-47 -62 0
-48 -63 0
-49 -52 0
-50 -53 0
-51 -54 0
-49 -34 0
-50 -35 0
-51 -36 0
-49 -10 0
-50 -11 0
-51 -12 0
-49 -55 0
-50 -56 0
-51 -57 0
-52 -49 0
-53 -50 0
-54 -51 0
-52 -58 0
-53 -59 0
-54 -60 0
-52 -43 0
-53 -44 0
-54 -45 0
-52 -55 0
-53 -56 0
-54 -57 0
-55 -49 0
-56 -50 0
-57 -51 0
-55 -52 0
-56 -53 0
-57 -54 0
-55 -70 0
-56 -71 0
-57 -72 0
-55 -61 0
-56 -62 0
-57 -63 0
-58 -115 0
-59 -116 0
-60 -117 0
-58 -109 0
-59 -110 0
-60 -111 0
-58 -52 0
-59 -53 0
-60 -54 0
-58 -103 0
-59 -104 0
-60 -105 0
-61 -46 0
-62 -47 0
-63 -48 0
-61 -13 0
-62 -14 0
-63 -15 0
-61 -64 0
-62 -65 0
-63 -66 0
-61 -55 0
-62 -56 0
-63 -57 0
-64 -112 0
-65 -113 0
-66 -114 0
-64 -82 0
-65 -83 0
-66 -84 0
-64 -97 0
-65 -98 0
-66 -99 0
-64 -61 0
-65 -62 0
-66 -63 0
-67 -46 0
-68 -47 0
-69 -48 0
-67 -82 0
-68 -83 0
-69 -84 0
-67 -79 0
-68 -80 0
-69 -81 0
-67 -70 0
-68 -71 0
-69 -72 0
-70 -67 0
-71 -68 0
-72 -69 0
-70 -106 0
-71 -107 0
-72 -108 0
-70 -55 0
-71 -56 0
-72 -57 0
-70 -88 0
-71 -89 0
-72 -90 0
-73 -19 0
-74 -20 0
-75 -21 0
-73 -76 0
-74 -77 0
-75 -78 0
-73 -79 0
-74 -80 0
-75 -81 0
-73 -40 0
-74 -41 0
-75 -42 0
-76 -16 0
-77 -17 0
-78 -18 0
-76 -82 0
-77 -83 0
-78 -84 0
-76 -85 0
-77 -86 0
-78 -87 0
-76 -73 0
-77 -74 0
-78 -75 0
-79 -67 0
-80 -68 0
-81 -69 0
-79 -43 0
-80 -44 0
-81 -45 0
-79 -73 0
-80 -74 0
-81 -75 0
-79 -22 0
-80 -23 0
-81 -24 0
-82 -112 0
-83 -113 0
-84 -114 0
-82 -67 0
-83 -68 0
-84 -69 0
-82 -76 0
-83 -77 0
-84 -78 0
-82 -64 0
-83 -65 0
-84 -66 0
-85 -112 0
-86 -113 0
-87 -114 0
-85 -76 0
-86 -77 0
-87 -78 0
-85 -13 0
-86 -14 0
-87 -15 0
-85 -88 0
-86 -89 0
-87 -90 0
-88 -85 0
-89 -86 0
-90 -87 0
-88 -70 0
-89 -71 0
-90 -72 0
-88 -22 0
-89 -23 0
-90 -24 0
-88 -106 0
-89 -107 0
-90 -108 0
-91 -94 0
-92 -95 0
-93 -96 0
-91 -7 0
-92 -8 0
-93 -9 0
-91 -10 0
-92 -11 0
-93 -12 0
-91 -97 0
-92 -98 0
-93 -99 0
-94 -100 0
-95 -101 0
-96 -102 0
-94 -91 0
-95 -92 0
-96 -93 0
-94 -106 0
-95 -107 0
-96 -108 0
-94 -103 0
-95 -104 0
-96 -105 0
-97 -109 0
-98 -110 0
-99 -111 0
-97 -10 0
-98 -11 0
-99 -12 0
-97 -91 0
-98 -92 0
-99 -93 0
-97 -64 0
-98 -65 0
-99 -66 0
-100 -94 0
-101 -95 0
-102 -96 0
-100 -118 0
-101 -119 0
-102 -120 0
-100 -115 0
-101 -116 0
-102 -117 0
-100 -16 0
-101 -17 0
-102 -18 0
-103 -112 0
-104 -113 0
-105 -114 0
-103 -94 0
-104 -95 0
-105 -96 0
-103 -58 0
-104 -59 0
-105 -60 0
-103 -106 0
-104 -107 0
-105 -108 0
-106 -94 0
-107 -95 0
-108 -96 0
-106 -103 0
-107 -104 0
-108 -105 0
-106 -70 0
-107 -71 0
-108 -72 0
-106 -88 0
-107 -89 0
-108 -90 0
-109 -58 0
-110 -59 0
-111 -60 0
-109 -97 0
-110 -98 0
-111 -99 0
-109 -31 0
-110 -32 0
-111 -33 0
-109 -7 0
-110 -8 0
-111 -9 0
-112 -82 0
-113 -83 0
-114 -84 0
-112 -103 0
-113 -104 0
-114 -105 0
-112 -85 0
-113 -86 0
-114 -87 0
-112 -64 0
-113 -65 0
-114 -66 0
-115 -100 0
-116 -101 0
-117 -102 0
-115 -58 0
-116 -59 0
-117 -60 0
-115 -43 0
-116 -44 0
-117 -45 0
-115 -31 0
-116 -32 0
-117 -33 0
-118 -100 0
-119 -101 0
-120 -102 0
-118 -37 0
-119 -38 0
-120 -39 0
-118 -7 0
-119 -8 0
-120 -9 0
-118 -19 0
-119 -20 0
-120 -21 0
